(set-logic UFLIA)
(declare-fun x () Bool)
(declare-fun y () Bool)
(declare-fun z () Bool)
(declare-fun a () Bool)
(declare-fun b () Bool)
(declare-fun c () Bool)

(assert (= x a))
(assert (= y b))
(assert (= z b))
(assert (not (= (ite x y z) (ite a b c))))
(check-sat)
(exit)
